183507.0
3515
0 1 2 4 5 6 7 9 10 11 12 14 16 19 20 21 22 23 24 25 27 29 30 31 32 35 36 37 38 40 41 43 44 45 46 47 48 50 53 56 57 58 61 62 63 64 65 66 68 69 70 71 73 74 76 77 79 80 81 85 86 87 88 89 90 91 92 93 95 96 97 98 99 101 102 103 104 108 109 112 113 114 115 117 118 119 120 121 122 123 125 126 127 128 129 130 132 133 134 135 138 140 141 142 143 146 147 148 149 151 152 154 155 156 157 158 159 162 163 164 165 166 167 169 170 171 172 173 174 175 176 177 178 179 185 186 187 190 191 192 194 195 197 198 199 